decision_x1=[0,4];
decision_x2=[0,4];
decision_x3=[0,4];
decision_x4=[0,4];
decision_x5=[0,4];
decision_x6=[0,4];
random_y1=[0,4];
random_y2=[0,4];
random_y3=[0,4];
constraint_x3_x1=[
0,1,4|
0,2,3.6|
0,3,0.57|
0,4,4.1|
1,0,4.2|
1,2,3.2|
1,3,2.8|
1,4,5.1|
2,0,1.5|
2,1,8.8|
2,3,9.7|
2,4,7.1|
3,0,3.9|
3,1,4.7|
3,2,6.9|
3,4,1.6|
4,0,6.3|
4,1,3.3|
4,2,1.3|
4,3,4.1|
];
constraint_x4_x2=[
0,1,7.1|
0,2,3.8|
0,3,1.9|
0,4,1.7|
1,0,6.9|
1,2,1.2|
1,3,5.9|
1,4,9.6|
2,0,4.5|
2,1,0.56|
2,3,2.5|
2,4,2.6|
3,0,3.9|
3,1,7.9|
3,2,8.5|
3,4,8.8|
4,0,5.7|
4,1,6.5|
4,2,6.8|
4,3,3.8|
];
constraint_x4_x3=[
0,1,1.6|
0,2,8.2|
0,3,6.5|
0,4,2|
1,0,2.9|
1,2,0.82|
1,3,9.3|
1,4,0.77|
2,0,7.4|
2,1,6.2|
2,3,6.6|
2,4,6.6|
3,0,6.1|
3,1,7.8|
3,2,2.6|
3,4,3.2|
4,0,7.5|
4,1,8.3|
4,2,1.7|
4,3,9.2|
];
constraint_x5_x2=[
0,1,1.2|
0,2,3.2|
0,3,4.7|
0,4,9|
1,0,8.6|
1,2,1.9|
1,3,7.7|
1,4,8|
2,0,1.2|
2,1,8.5|
2,3,7.2|
2,4,3|
3,0,3.8|
3,1,8.5|
3,2,0.47|
3,4,7.9|
4,0,0.28|
4,1,6|
4,2,8.7|
4,3,3.7|
];
constraint_x5_x3=[
0,1,4|
0,2,1.9|
0,3,0.49|
0,4,0.2|
1,0,8.3|
1,2,2.7|
1,3,4.6|
1,4,5.4|
2,0,3.6|
2,1,2.2|
2,3,1.6|
2,4,9.5|
3,0,2.9|
3,1,4|
3,2,8.3|
3,4,6.4|
4,0,5.3|
4,1,8.1|
4,2,2.7|
4,3,9.8|
];
constraint_x6_x2=[
0,1,0.69|
0,2,9.5|
0,3,8.8|
0,4,0.042|
1,0,9.5|
1,2,0.94|
1,3,3.6|
1,4,9.9|
2,0,3.5|
2,1,6.5|
2,3,7.6|
2,4,1.1|
3,0,6.9|
3,1,3.2|
3,2,4.3|
3,4,1.3|
4,0,1.2|
4,1,6.2|
4,2,8.5|
4,3,3.2|
];
constraint_x6_x3=[
0,1,4|
0,2,0.51|
0,3,1.8|
0,4,2.7|
1,0,0.7|
1,2,7.3|
1,3,9.7|
1,4,6.1|
2,0,2.4|
2,1,0.28|
2,3,2.2|
2,4,8.3|
3,0,8.3|
3,1,8.7|
3,2,9.9|
3,4,7.5|
4,0,3.1|
4,1,4.6|
4,2,0.12|
4,3,6.6|
];
constraint_x6_x5=[
0,1,9.5|
0,2,8|
0,3,0.4|
0,4,9.3|
1,0,2.1|
1,2,0.63|
1,3,4.2|
1,4,5.4|
2,0,3.5|
2,1,2.1|
2,3,8.4|
2,4,0.83|
3,0,6|
3,1,0.48|
3,2,1.8|
3,4,8.4|
4,0,8.2|
4,1,7.6|
4,2,7.3|
4,3,7.2|
];
constraint_x1_y1=[
0,0,5.5|
0,1,9.7|
0,2,7.7|
0,3,2.3|
0,4,0.88|
1,0,9|
1,1,5.9|
1,2,2.6|
1,3,5.2|
1,4,5.1|
2,0,9.6|
2,1,7.8|
2,2,5.6|
2,3,6.1|
2,4,0.72|
3,0,1.4|
3,1,0.72|
3,2,6.7|
3,3,9.2|
3,4,8.1|
4,0,8.5|
4,1,7.5|
4,2,6|
4,3,4.1|
4,4,1.6|
];
constraint_x2_y2=[
0,0,2|
0,1,9.2|
0,2,0.69|
0,3,5.9|
0,4,4.4|
1,0,0.022|
1,1,3.7|
1,2,3.2|
1,3,5.4|
1,4,8.4|
2,0,2.5|
2,1,2.1|
2,2,8.7|
2,3,4.3|
2,4,3.1|
3,0,4.6|
3,1,2.2|
3,2,2.1|
3,3,8.3|
3,4,4.8|
4,0,0.019|
4,1,3.3|
4,2,9.7|
4,3,3.9|
4,4,2.2|
];
constraint_x3_y3=[
0,0,3.2|
0,1,3.5|
0,2,0.88|
0,3,2.5|
0,4,3.2|
1,0,2.1|
1,1,9|
1,2,0.15|
1,3,3.7|
1,4,6.1|
2,0,7.8|
2,1,9.3|
2,2,6.8|
2,3,0.57|
2,4,4.7|
3,0,5.9|
3,1,3.3|
3,2,6.6|
3,3,6.8|
3,4,9.7|
4,0,3.5|
4,1,5.5|
4,2,9.4|
4,3,6.8|
4,4,1.8|
];
initial_distribution_y1=[0.11,0.16,0.22,0.31,0.19];
initial_distribution_y2=[0.11,0.42,0.15,0.17,0.15];
initial_distribution_y3=[0.091,0.32,0.1,0.21,0.28];
transition_y1=[
0.19,0.29,0.43,0.081,0.011|
0.26,0.16,0.2,0.26,0.12|
0.14,0.36,0.35,0.012,0.13|
0.089,0.15,0.21,0.29,0.26|
0.29,0.28,0.043,0.1,0.28|
];
transition_y2=[
0.056,0.0092,0.23,0.36,0.34|
0.28,0.19,0.23,0.15,0.15|
0.15,0.25,0.14,0.15,0.3|
0.067,0.25,0.27,0.12,0.29|
0.22,0.088,0.18,0.21,0.3|
];
transition_y3=[
0.3,0.21,0.12,0.085,0.29|
0.24,0.13,0.14,0.24,0.25|
0.18,0.26,0.079,0.21,0.27|
0.29,0.14,0.17,0.23,0.16|
0.14,0.26,0.26,0.22,0.11|
];
